sat
(objectives
 (total_wait 30)
)
((rprim_1_1 20))
((rprim_1_2 1))
((rprim_1_3 17))
((rprim_1_4 9))
((rprim_1_5 21))
((rprim_1_6 17))
((rprim_1_7 1))
((rprim_1_8 15))
((rprim_1_9 11))
((rprim_1_10 1))
((rprim_1_11 13))
((rprim_1_12 14))
((rprim_1_13 1))
((rprim_1_14 1))
((rprim_1_15 3))
((rprim_1_16 21))
((rprim_1_17 1))
((rprim_1_18 20))
((rprim_1_19 21))
((rprim_1_20 21))
((rprim_1_21 1))
((rprim_1_22 18))
((rprim_1_23 1))
((rprim_1_24 7))
((rprim_1_25 15))
((rprim_1_26 20))
((rprim_1_27 1))
((rprim_1_28 18))
((rprim_1_29 5))
((rprim_2_1 19))
((rprim_2_2 8))
((rprim_2_3 20))
((rprim_2_4 9))
((rprim_2_5 1))
((rprim_2_6 1))
((rprim_2_7 18))
((rprim_2_8 17))
((rprim_2_9 1))
((rprim_2_10 14))
((rprim_2_11 15))
((rprim_2_12 1))
((rprim_2_13 20))
((rprim_2_14 16))
((rprim_2_15 1))
((rprim_2_16 1))
((rprim_2_17 14))
((rprim_2_18 19))
((rprim_2_19 19))
((rprim_2_20 1))
((rprim_2_21 9))
((rprim_2_22 20))
((rprim_2_23 1))
((rprim_2_24 1))
((rprim_2_25 18))
((rprim_2_26 21))
((rprim_2_27 1))
((rprim_2_28 19))
((rprim_2_29 9))
((rx_1_1 8))
((ry_1_1 18))
((rx_1_2 5))
((ry_1_2 18))
((rx_1_3 5))
((ry_1_3 18))
((rx_1_4 7))
((ry_1_4 16))
((rx_1_5 8))
((ry_1_5 15))
((rx_1_6 8))
((ry_1_6 12))
((rx_1_7 10))
((ry_1_7 10))
((rx_1_8 10))
((ry_1_8 10))
((rx_1_9 8))
((ry_1_9 12))
((rx_1_10 8))
((ry_1_10 14))
((rx_1_11 8))
((ry_1_11 14))
((rx_1_12 8))
((ry_1_12 12))
((rx_1_13 10))
((ry_1_13 14))
((rx_1_14 10))
((ry_1_14 14))
((rx_1_15 10))
((ry_1_15 14))
((rx_1_16 10))
((ry_1_16 13))
((rx_1_17 10))
((ry_1_17 10))
((rx_1_18 10))
((ry_1_18 10))
((rx_1_19 7))
((ry_1_19 10))
((rx_1_20 7))
((ry_1_20 7))
((rx_1_21 7))
((ry_1_21 4))
((rx_1_22 7))
((ry_1_22 4))
((rx_1_23 10))
((ry_1_23 4))
((rx_1_24 10))
((ry_1_24 4))
((rx_1_25 9))
((ry_1_25 5))
((rx_1_26 7))
((ry_1_26 7))
((rx_1_27 4))
((ry_1_27 7))
((rx_1_28 4))
((ry_1_28 7))
((rx_1_29 7))
((ry_1_29 7))
((rx_1_30 7))
((ry_1_30 8))
((rx_2_1 8))
((ry_2_1 5))
((rx_2_2 8))
((ry_2_2 8))
((rx_2_3 7))
((ry_2_3 7))
((rx_2_4 4))
((ry_2_4 7))
((rx_2_5 5))
((ry_2_5 6))
((rx_2_6 5))
((ry_2_6 6))
((rx_2_7 5))
((ry_2_7 6))
((rx_2_8 8))
((ry_2_8 6))
((rx_2_9 10))
((ry_2_9 4))
((rx_2_10 10))
((ry_2_10 4))
((rx_2_11 12))
((ry_2_11 6))
((rx_2_12 10))
((ry_2_12 8))
((rx_2_13 10))
((ry_2_13 8))
((rx_2_14 7))
((ry_2_14 8))
((rx_2_15 5))
((ry_2_15 6))
((rx_2_16 5))
((ry_2_16 6))
((rx_2_17 5))
((ry_2_17 6))
((rx_2_18 7))
((ry_2_18 8))
((rx_2_19 7))
((ry_2_19 11))
((rx_2_20 7))
((ry_2_20 14))
((rx_2_21 7))
((ry_2_21 14))
((rx_2_22 8))
((ry_2_22 13))
((rx_2_23 5))
((ry_2_23 13))
((rx_2_24 5))
((ry_2_24 13))
((rx_2_25 5))
((ry_2_25 13))
((rx_2_26 8))
((ry_2_26 13))
((rx_2_27 8))
((ry_2_27 10))
((rx_2_28 8))
((ry_2_28 10))
((rx_2_29 8))
((ry_2_29 13))
((rx_2_30 9))
((ry_2_30 12))
((total_rcost 0))
((wprim_1_1 1))
((wprim_1_2 1))
((wprim_1_3 1))
((wprim_1_4 1))
((wprim_1_5 1))
((wprim_1_6 2))
((wprim_1_7 1))
((wprim_1_8 1))
((wprim_1_9 1))
((wprim_1_10 1))
((wprim_1_11 1))
((wprim_1_12 1))
((wprim_1_13 1))
((wprim_1_14 1))
((wprim_1_15 2))
((wprim_1_16 2))
((wprim_1_17 0))
((wprim_1_18 1))
((wprim_1_19 1))
((wprim_1_20 1))
((wprim_1_21 2))
((wprim_1_22 1))
((wprim_1_23 1))
((wprim_1_24 1))
((wprim_1_25 1))
((wprim_1_26 1))
((wprim_1_27 1))
((wprim_1_28 1))
((wprim_1_29 1))
((wprim_2_1 1))
((wprim_2_2 1))
((wprim_2_3 1))
((wprim_2_4 1))
((wprim_2_5 1))
((wprim_2_6 1))
((wprim_2_7 0))
((wprim_2_8 0))
((wprim_2_9 2))
((wprim_2_10 0))
((wprim_2_11 1))
((wprim_2_12 1))
((wprim_2_13 1))
((wprim_2_14 1))
((wprim_2_15 1))
((wprim_2_16 1))
((wprim_2_17 1))
((wprim_2_18 1))
((wprim_2_19 1))
((wprim_2_20 1))
((wprim_2_21 1))
((wprim_2_22 1))
((wprim_2_23 2))
((wprim_2_24 1))
((wprim_2_25 1))
((wprim_2_26 1))
((wprim_2_27 1))
((wprim_2_28 1))
((wprim_2_29 1))
((wprim_3_1 1))
((wprim_3_2 1))
((wprim_3_3 1))
((wprim_3_4 1))
((wprim_3_5 1))
((wprim_3_6 1))
((wprim_3_7 2))
((wprim_3_8 1))
((wprim_3_9 1))
((wprim_3_10 1))
((wprim_3_11 1))
((wprim_3_12 2))
((wprim_3_13 1))
((wprim_3_14 1))
((wprim_3_15 1))
((wprim_3_16 1))
((wprim_3_17 2))
((wprim_3_18 1))
((wprim_3_19 0))
((wprim_3_20 0))
((wprim_3_21 1))
((wprim_3_22 1))
((wprim_3_23 1))
((wprim_3_24 1))
((wprim_3_25 1))
((wprim_3_26 1))
((wprim_3_27 1))
((wprim_3_28 1))
((wprim_3_29 1))
((wprim_4_1 1))
((wprim_4_2 1))
((wprim_4_3 1))
((wprim_4_4 1))
((wprim_4_5 1))
((wprim_4_6 2))
((wprim_4_7 1))
((wprim_4_8 1))
((wprim_4_9 0))
((wprim_4_10 1))
((wprim_4_11 1))
((wprim_4_12 1))
((wprim_4_13 0))
((wprim_4_14 1))
((wprim_4_15 2))
((wprim_4_16 1))
((wprim_4_17 1))
((wprim_4_18 1))
((wprim_4_19 1))
((wprim_4_20 1))
((wprim_4_21 1))
((wprim_4_22 1))
((wprim_4_23 1))
((wprim_4_24 1))
((wprim_4_25 1))
((wprim_4_26 1))
((wprim_4_27 2))
((wprim_4_28 1))
((wprim_4_29 1))
((wprim_5_1 1))
((wprim_5_2 2))
((wprim_5_3 1))
((wprim_5_4 1))
((wprim_5_5 1))
((wprim_5_6 1))
((wprim_5_7 1))
((wprim_5_8 1))
((wprim_5_9 1))
((wprim_5_10 2))
((wprim_5_11 1))
((wprim_5_12 1))
((wprim_5_13 1))
((wprim_5_14 1))
((wprim_5_15 1))
((wprim_5_16 1))
((wprim_5_17 1))
((wprim_5_18 1))
((wprim_5_19 0))
((wprim_5_20 2))
((wprim_5_21 1))
((wprim_5_22 1))
((wprim_5_23 1))
((wprim_5_24 2))
((wprim_5_25 1))
((wprim_5_26 1))
((wprim_5_27 1))
((wprim_5_28 1))
((wprim_5_29 1))
((wprim_6_1 1))
((wprim_6_2 1))
((wprim_6_3 1))
((wprim_6_4 1))
((wprim_6_5 1))
((wprim_6_6 1))
((wprim_6_7 1))
((wprim_6_8 1))
((wprim_6_9 1))
((wprim_6_10 1))
((wprim_6_11 1))
((wprim_6_12 1))
((wprim_6_13 2))
((wprim_6_14 2))
((wprim_6_15 1))
((wprim_6_16 1))
((wprim_6_17 1))
((wprim_6_18 1))
((wprim_6_19 1))
((wprim_6_20 1))
((wprim_6_21 0))
((wprim_6_22 0))
((wprim_6_23 1))
((wprim_6_24 0))
((wprim_6_25 1))
((wprim_6_26 1))
((wprim_6_27 1))
((wprim_6_28 1))
((wprim_6_29 1))
((wtraj_1_1 1))
((wtraj_1_2 2))
((wtraj_1_3 3))
((wtraj_1_4 4))
((wtraj_1_5 1))
((wtraj_1_6 2))
((wtraj_1_7 2))
((wtraj_1_8 3))
((wtraj_1_9 4))
((wtraj_1_10 1))
((wtraj_1_11 2))
((wtraj_1_12 3))
((wtraj_1_13 4))
((wtraj_1_14 1))
((wtraj_1_15 2))
((wtraj_1_16 2))
((wtraj_1_17 2))
((wtraj_1_18 2))
((wtraj_1_19 3))
((wtraj_1_20 4))
((wtraj_1_21 1))
((wtraj_1_22 1))
((wtraj_1_23 2))
((wtraj_1_24 3))
((wtraj_1_25 4))
((wtraj_1_26 1))
((wtraj_1_27 2))
((wtraj_1_28 3))
((wtraj_1_29 4))
((wtraj_1_30 1))
((wtraj_2_1 1))
((wtraj_2_2 2))
((wtraj_2_3 3))
((wtraj_2_4 4))
((wtraj_2_5 5))
((wtraj_2_6 6))
((wtraj_2_7 1))
((wtraj_2_8 1))
((wtraj_2_9 1))
((wtraj_2_10 1))
((wtraj_2_11 1))
((wtraj_2_12 2))
((wtraj_2_13 3))
((wtraj_2_14 4))
((wtraj_2_15 5))
((wtraj_2_16 6))
((wtraj_2_17 1))
((wtraj_2_18 2))
((wtraj_2_19 3))
((wtraj_2_20 4))
((wtraj_2_21 5))
((wtraj_2_22 6))
((wtraj_2_23 1))
((wtraj_2_24 1))
((wtraj_2_25 2))
((wtraj_2_26 3))
((wtraj_2_27 4))
((wtraj_2_28 5))
((wtraj_2_29 6))
((wtraj_2_30 1))
((wtraj_3_1 1))
((wtraj_3_2 2))
((wtraj_3_3 3))
((wtraj_3_4 4))
((wtraj_3_5 1))
((wtraj_3_6 2))
((wtraj_3_7 3))
((wtraj_3_8 3))
((wtraj_3_9 4))
((wtraj_3_10 1))
((wtraj_3_11 2))
((wtraj_3_12 3))
((wtraj_3_13 3))
((wtraj_3_14 4))
((wtraj_3_15 1))
((wtraj_3_16 2))
((wtraj_3_17 3))
((wtraj_3_18 3))
((wtraj_3_19 4))
((wtraj_3_20 4))
((wtraj_3_21 4))
((wtraj_3_22 1))
((wtraj_3_23 2))
((wtraj_3_24 3))
((wtraj_3_25 4))
((wtraj_3_26 1))
((wtraj_3_27 2))
((wtraj_3_28 3))
((wtraj_3_29 4))
((wtraj_3_30 1))
((wtraj_4_1 1))
((wtraj_4_2 2))
((wtraj_4_3 3))
((wtraj_4_4 4))
((wtraj_4_5 5))
((wtraj_4_6 6))
((wtraj_4_7 6))
((wtraj_4_8 1))
((wtraj_4_9 2))
((wtraj_4_10 2))
((wtraj_4_11 3))
((wtraj_4_12 4))
((wtraj_4_13 5))
((wtraj_4_14 5))
((wtraj_4_15 6))
((wtraj_4_16 6))
((wtraj_4_17 1))
((wtraj_4_18 2))
((wtraj_4_19 3))
((wtraj_4_20 4))
((wtraj_4_21 5))
((wtraj_4_22 6))
((wtraj_4_23 1))
((wtraj_4_24 2))
((wtraj_4_25 3))
((wtraj_4_26 4))
((wtraj_4_27 5))
((wtraj_4_28 5))
((wtraj_4_29 6))
((wtraj_4_30 1))
((wtraj_5_1 1))
((wtraj_5_2 2))
((wtraj_5_3 2))
((wtraj_5_4 3))
((wtraj_5_5 4))
((wtraj_5_6 1))
((wtraj_5_7 2))
((wtraj_5_8 3))
((wtraj_5_9 4))
((wtraj_5_10 1))
((wtraj_5_11 1))
((wtraj_5_12 2))
((wtraj_5_13 3))
((wtraj_5_14 4))
((wtraj_5_15 1))
((wtraj_5_16 2))
((wtraj_5_17 3))
((wtraj_5_18 4))
((wtraj_5_19 1))
((wtraj_5_20 1))
((wtraj_5_21 1))
((wtraj_5_22 2))
((wtraj_5_23 3))
((wtraj_5_24 4))
((wtraj_5_25 4))
((wtraj_5_26 1))
((wtraj_5_27 2))
((wtraj_5_28 3))
((wtraj_5_29 4))
((wtraj_5_30 1))
((wtraj_6_1 1))
((wtraj_6_2 2))
((wtraj_6_3 3))
((wtraj_6_4 4))
((wtraj_6_5 5))
((wtraj_6_6 6))
((wtraj_6_7 1))
((wtraj_6_8 2))
((wtraj_6_9 3))
((wtraj_6_10 4))
((wtraj_6_11 5))
((wtraj_6_12 6))
((wtraj_6_13 1))
((wtraj_6_14 1))
((wtraj_6_15 1))
((wtraj_6_16 2))
((wtraj_6_17 3))
((wtraj_6_18 4))
((wtraj_6_19 5))
((wtraj_6_20 6))
((wtraj_6_21 1))
((wtraj_6_22 1))
((wtraj_6_23 1))
((wtraj_6_24 2))
((wtraj_6_25 2))
((wtraj_6_26 3))
((wtraj_6_27 4))
((wtraj_6_28 5))
((wtraj_6_29 6))
((wtraj_6_30 1))
((wx_1_1 7))
((wy_1_1 3))
((wx_1_2 4))
((wy_1_2 5))
((wx_1_3 1))
((wy_1_3 3))
((wx_1_4 4))
((wy_1_4 1))
((wx_1_5 7))
((wy_1_5 3))
((wx_1_6 4))
((wy_1_6 5))
((wx_1_7 4))
((wy_1_7 5))
((wx_1_8 1))
((wy_1_8 3))
((wx_1_9 4))
((wy_1_9 1))
((wx_1_10 7))
((wy_1_10 3))
((wx_1_11 4))
((wy_1_11 5))
((wx_1_12 1))
((wy_1_12 3))
((wx_1_13 4))
((wy_1_13 1))
((wx_1_14 7))
((wy_1_14 3))
((wx_1_15 4))
((wy_1_15 5))
((wx_1_16 4))
((wy_1_16 5))
((wx_1_17 4))
((wy_1_17 5))
((wx_1_18 4))
((wy_1_18 5))
((wx_1_19 1))
((wy_1_19 3))
((wx_1_20 4))
((wy_1_20 1))
((wx_1_21 7))
((wy_1_21 3))
((wx_1_22 7))
((wy_1_22 3))
((wx_1_23 4))
((wy_1_23 5))
((wx_1_24 1))
((wy_1_24 3))
((wx_1_25 4))
((wy_1_25 1))
((wx_1_26 7))
((wy_1_26 3))
((wx_1_27 4))
((wy_1_27 5))
((wx_1_28 1))
((wy_1_28 3))
((wx_1_29 4))
((wy_1_29 1))
((wx_1_30 7))
((wy_1_30 3))
((wx_2_1 11))
((wy_2_1 3))
((wx_2_2 13))
((wy_2_2 1))
((wx_2_3 15))
((wy_2_3 1))
((wx_2_4 17))
((wy_2_4 3))
((wx_2_5 15))
((wy_2_5 5))
((wx_2_6 13))
((wy_2_6 5))
((wx_2_7 11))
((wy_2_7 3))
((wx_2_8 11))
((wy_2_8 3))
((wx_2_9 11))
((wy_2_9 3))
((wx_2_10 11))
((wy_2_10 3))
((wx_2_11 11))
((wy_2_11 3))
((wx_2_12 13))
((wy_2_12 1))
((wx_2_13 15))
((wy_2_13 1))
((wx_2_14 17))
((wy_2_14 3))
((wx_2_15 15))
((wy_2_15 5))
((wx_2_16 13))
((wy_2_16 5))
((wx_2_17 11))
((wy_2_17 3))
((wx_2_18 13))
((wy_2_18 1))
((wx_2_19 15))
((wy_2_19 1))
((wx_2_20 17))
((wy_2_20 3))
((wx_2_21 15))
((wy_2_21 5))
((wx_2_22 13))
((wy_2_22 5))
((wx_2_23 11))
((wy_2_23 3))
((wx_2_24 11))
((wy_2_24 3))
((wx_2_25 13))
((wy_2_25 1))
((wx_2_26 15))
((wy_2_26 1))
((wx_2_27 17))
((wy_2_27 3))
((wx_2_28 15))
((wy_2_28 5))
((wx_2_29 13))
((wy_2_29 5))
((wx_2_30 11))
((wy_2_30 3))
((wx_3_1 17))
((wy_3_1 9))
((wx_3_2 14))
((wy_3_2 11))
((wx_3_3 11))
((wy_3_3 9))
((wx_3_4 14))
((wy_3_4 7))
((wx_3_5 17))
((wy_3_5 9))
((wx_3_6 14))
((wy_3_6 11))
((wx_3_7 11))
((wy_3_7 9))
((wx_3_8 11))
((wy_3_8 9))
((wx_3_9 14))
((wy_3_9 7))
((wx_3_10 17))
((wy_3_10 9))
((wx_3_11 14))
((wy_3_11 11))
((wx_3_12 11))
((wy_3_12 9))
((wx_3_13 11))
((wy_3_13 9))
((wx_3_14 14))
((wy_3_14 7))
((wx_3_15 17))
((wy_3_15 9))
((wx_3_16 14))
((wy_3_16 11))
((wx_3_17 11))
((wy_3_17 9))
((wx_3_18 11))
((wy_3_18 9))
((wx_3_19 14))
((wy_3_19 7))
((wx_3_20 14))
((wy_3_20 7))
((wx_3_21 14))
((wy_3_21 7))
((wx_3_22 17))
((wy_3_22 9))
((wx_3_23 14))
((wy_3_23 11))
((wx_3_24 11))
((wy_3_24 9))
((wx_3_25 14))
((wy_3_25 7))
((wx_3_26 17))
((wy_3_26 9))
((wx_3_27 14))
((wy_3_27 11))
((wx_3_28 11))
((wy_3_28 9))
((wx_3_29 14))
((wy_3_29 7))
((wx_3_30 17))
((wy_3_30 9))
((wx_4_1 7))
((wy_4_1 9))
((wx_4_2 5))
((wy_4_2 11))
((wx_4_3 3))
((wy_4_3 11))
((wx_4_4 1))
((wy_4_4 9))
((wx_4_5 3))
((wy_4_5 7))
((wx_4_6 5))
((wy_4_6 7))
((wx_4_7 5))
((wy_4_7 7))
((wx_4_8 7))
((wy_4_8 9))
((wx_4_9 5))
((wy_4_9 11))
((wx_4_10 5))
((wy_4_10 11))
((wx_4_11 3))
((wy_4_11 11))
((wx_4_12 1))
((wy_4_12 9))
((wx_4_13 3))
((wy_4_13 7))
((wx_4_14 3))
((wy_4_14 7))
((wx_4_15 5))
((wy_4_15 7))
((wx_4_16 5))
((wy_4_16 7))
((wx_4_17 7))
((wy_4_17 9))
((wx_4_18 5))
((wy_4_18 11))
((wx_4_19 3))
((wy_4_19 11))
((wx_4_20 1))
((wy_4_20 9))
((wx_4_21 3))
((wy_4_21 7))
((wx_4_22 5))
((wy_4_22 7))
((wx_4_23 7))
((wy_4_23 9))
((wx_4_24 5))
((wy_4_24 11))
((wx_4_25 3))
((wy_4_25 11))
((wx_4_26 1))
((wy_4_26 9))
((wx_4_27 3))
((wy_4_27 7))
((wx_4_28 3))
((wy_4_28 7))
((wx_4_29 5))
((wy_4_29 7))
((wx_4_30 7))
((wy_4_30 9))
((wx_5_1 7))
((wy_5_1 15))
((wx_5_2 4))
((wy_5_2 17))
((wx_5_3 4))
((wy_5_3 17))
((wx_5_4 1))
((wy_5_4 15))
((wx_5_5 4))
((wy_5_5 13))
((wx_5_6 7))
((wy_5_6 15))
((wx_5_7 4))
((wy_5_7 17))
((wx_5_8 1))
((wy_5_8 15))
((wx_5_9 4))
((wy_5_9 13))
((wx_5_10 7))
((wy_5_10 15))
((wx_5_11 7))
((wy_5_11 15))
((wx_5_12 4))
((wy_5_12 17))
((wx_5_13 1))
((wy_5_13 15))
((wx_5_14 4))
((wy_5_14 13))
((wx_5_15 7))
((wy_5_15 15))
((wx_5_16 4))
((wy_5_16 17))
((wx_5_17 1))
((wy_5_17 15))
((wx_5_18 4))
((wy_5_18 13))
((wx_5_19 7))
((wy_5_19 15))
((wx_5_20 7))
((wy_5_20 15))
((wx_5_21 7))
((wy_5_21 15))
((wx_5_22 4))
((wy_5_22 17))
((wx_5_23 1))
((wy_5_23 15))
((wx_5_24 4))
((wy_5_24 13))
((wx_5_25 4))
((wy_5_25 13))
((wx_5_26 7))
((wy_5_26 15))
((wx_5_27 4))
((wy_5_27 17))
((wx_5_28 1))
((wy_5_28 15))
((wx_5_29 4))
((wy_5_29 13))
((wx_5_30 7))
((wy_5_30 15))
((wx_6_1 11))
((wy_6_1 15))
((wx_6_2 13))
((wy_6_2 13))
((wx_6_3 15))
((wy_6_3 13))
((wx_6_4 17))
((wy_6_4 15))
((wx_6_5 15))
((wy_6_5 17))
((wx_6_6 13))
((wy_6_6 17))
((wx_6_7 11))
((wy_6_7 15))
((wx_6_8 13))
((wy_6_8 13))
((wx_6_9 15))
((wy_6_9 13))
((wx_6_10 17))
((wy_6_10 15))
((wx_6_11 15))
((wy_6_11 17))
((wx_6_12 13))
((wy_6_12 17))
((wx_6_13 11))
((wy_6_13 15))
((wx_6_14 11))
((wy_6_14 15))
((wx_6_15 11))
((wy_6_15 15))
((wx_6_16 13))
((wy_6_16 13))
((wx_6_17 15))
((wy_6_17 13))
((wx_6_18 17))
((wy_6_18 15))
((wx_6_19 15))
((wy_6_19 17))
((wx_6_20 13))
((wy_6_20 17))
((wx_6_21 11))
((wy_6_21 15))
((wx_6_22 11))
((wy_6_22 15))
((wx_6_23 11))
((wy_6_23 15))
((wx_6_24 13))
((wy_6_24 13))
((wx_6_25 13))
((wy_6_25 13))
((wx_6_26 15))
((wy_6_26 13))
((wx_6_27 17))
((wy_6_27 15))
((wx_6_28 15))
((wy_6_28 17))
((wx_6_29 13))
((wy_6_29 17))
((wx_6_30 11))
((wy_6_30 15))
((ch_1_1 20))
((ch_1_2 18))
((ch_1_3 16))
((ch_1_4 14))
((ch_1_5 12))
((ch_1_6 10))
((ch_1_7 18))
((ch_1_8 16))
((ch_1_9 14))
((ch_1_10 12))
((ch_1_11 10))
((ch_1_12 8))
((ch_1_13 6))
((ch_1_14 4))
((ch_1_15 2))
((ch_1_16 6))
((ch_1_17 12))
((ch_1_18 12))
((ch_1_19 10))
((ch_1_20 8))
((ch_1_21 6))
((ch_1_22 16))
((ch_1_23 14))
((ch_1_24 12))
((ch_1_25 10))
((ch_1_26 8))
((ch_1_27 6))
((ch_1_28 4))
((ch_1_29 2))
((ch_1_30 0))
((ch_2_1 20))
((ch_2_2 18))
((ch_2_3 17))
((ch_2_4 15))
((ch_2_5 13))
((ch_2_6 12))
((ch_2_7 10))
((ch_2_8 10))
((ch_2_9 10))
((ch_2_10 20))
((ch_2_11 20))
((ch_2_12 19))
((ch_2_13 17))
((ch_2_14 15))
((ch_2_15 14))
((ch_2_16 12))
((ch_2_17 10))
((ch_2_18 9))
((ch_2_19 7))
((ch_2_20 5))
((ch_2_21 4))
((ch_2_22 2))
((ch_2_23 0))
((ch_2_24 10))
((ch_2_25 8))
((ch_2_26 6))
((ch_2_27 5))
((ch_2_28 3))
((ch_2_29 1))
((ch_2_30 0))
((ch_3_1 20))
((ch_3_2 18))
((ch_3_3 16))
((ch_3_4 14))
((ch_3_5 12))
((ch_3_6 10))
((ch_3_7 8))
((ch_3_8 16))
((ch_3_9 14))
((ch_3_10 12))
((ch_3_11 10))
((ch_3_12 8))
((ch_3_13 18))
((ch_3_14 16))
((ch_3_15 14))
((ch_3_16 12))
((ch_3_17 10))
((ch_3_18 20))
((ch_3_19 18))
((ch_3_20 18))
((ch_3_21 18))
((ch_3_22 16))
((ch_3_23 14))
((ch_3_24 12))
((ch_3_25 10))
((ch_3_26 8))
((ch_3_27 6))
((ch_3_28 4))
((ch_3_29 2))
((ch_3_30 0))
((ch_4_1 20))
((ch_4_2 18))
((ch_4_3 17))
((ch_4_4 15))
((ch_4_5 13))
((ch_4_6 12))
((ch_4_7 17))
((ch_4_8 15))
((ch_4_9 14))
((ch_4_10 14))
((ch_4_11 12))
((ch_4_12 11))
((ch_4_13 9))
((ch_4_14 9))
((ch_4_15 8))
((ch_4_16 18))
((ch_4_17 16))
((ch_4_18 15))
((ch_4_19 13))
((ch_4_20 11))
((ch_4_21 10))
((ch_4_22 8))
((ch_4_23 6))
((ch_4_24 5))
((ch_4_25 3))
((ch_4_26 1))
((ch_4_27 0))
((ch_4_28 6))
((ch_4_29 4))
((ch_4_30 3))
((ch_5_1 20))
((ch_5_2 18))
((ch_5_3 20))
((ch_5_4 18))
((ch_5_5 16))
((ch_5_6 14))
((ch_5_7 12))
((ch_5_8 10))
((ch_5_9 8))
((ch_5_10 6))
((ch_5_11 16))
((ch_5_12 14))
((ch_5_13 12))
((ch_5_14 10))
((ch_5_15 8))
((ch_5_16 6))
((ch_5_17 4))
((ch_5_18 2))
((ch_5_19 0))
((ch_5_20 0))
((ch_5_21 6))
((ch_5_22 4))
((ch_5_23 2))
((ch_5_24 0))
((ch_5_25 10))
((ch_5_26 8))
((ch_5_27 6))
((ch_5_28 4))
((ch_5_29 2))
((ch_5_30 0))
((ch_6_1 20))
((ch_6_2 18))
((ch_6_3 17))
((ch_6_4 15))
((ch_6_5 13))
((ch_6_6 12))
((ch_6_7 10))
((ch_6_8 8))
((ch_6_9 7))
((ch_6_10 5))
((ch_6_11 3))
((ch_6_12 2))
((ch_6_13 0))
((ch_6_14 9))
((ch_6_15 19))
((ch_6_16 17))
((ch_6_17 15))
((ch_6_18 14))
((ch_6_19 12))
((ch_6_20 10))
((ch_6_21 9))
((ch_6_22 9))
((ch_6_23 9))
((ch_6_24 8))
((ch_6_25 8))
((ch_6_26 6))
((ch_6_27 5))
((ch_6_28 3))
((ch_6_29 1))
((ch_6_30 0))
((rechcount_1_1 0))
((rechcount_1_2 0))
((rechcount_1_3 0))
((rechcount_1_4 0))
((rechcount_1_5 0))
((rechcount_1_6 1))
((rechcount_1_7 0))
((rechcount_1_8 0))
((rechcount_1_9 0))
((rechcount_1_10 0))
((rechcount_1_11 0))
((rechcount_1_12 0))
((rechcount_1_13 0))
((rechcount_1_14 0))
((rechcount_1_15 1))
((rechcount_1_16 1))
((rechcount_1_17 0))
((rechcount_1_18 0))
((rechcount_1_19 0))
((rechcount_1_20 0))
((rechcount_1_21 1))
((rechcount_1_22 0))
((rechcount_1_23 0))
((rechcount_1_24 0))
((rechcount_1_25 0))
((rechcount_1_26 0))
((rechcount_1_27 0))
((rechcount_1_28 0))
((rechcount_1_29 0))
((rechcount_2_1 0))
((rechcount_2_2 0))
((rechcount_2_3 0))
((rechcount_2_4 0))
((rechcount_2_5 0))
((rechcount_2_6 0))
((rechcount_2_7 0))
((rechcount_2_8 0))
((rechcount_2_9 1))
((rechcount_2_10 0))
((rechcount_2_11 0))
((rechcount_2_12 0))
((rechcount_2_13 0))
((rechcount_2_14 0))
((rechcount_2_15 0))
((rechcount_2_16 0))
((rechcount_2_17 0))
((rechcount_2_18 0))
((rechcount_2_19 0))
((rechcount_2_20 0))
((rechcount_2_21 0))
((rechcount_2_22 0))
((rechcount_2_23 1))
((rechcount_2_24 0))
((rechcount_2_25 0))
((rechcount_2_26 0))
((rechcount_2_27 0))
((rechcount_2_28 0))
((rechcount_2_29 0))
((rechcount_3_1 0))
((rechcount_3_2 0))
((rechcount_3_3 0))
((rechcount_3_4 0))
((rechcount_3_5 0))
((rechcount_3_6 0))
((rechcount_3_7 1))
((rechcount_3_8 0))
((rechcount_3_9 0))
((rechcount_3_10 0))
((rechcount_3_11 0))
((rechcount_3_12 1))
((rechcount_3_13 0))
((rechcount_3_14 0))
((rechcount_3_15 0))
((rechcount_3_16 0))
((rechcount_3_17 1))
((rechcount_3_18 0))
((rechcount_3_19 0))
((rechcount_3_20 0))
((rechcount_3_21 0))
((rechcount_3_22 0))
((rechcount_3_23 0))
((rechcount_3_24 0))
((rechcount_3_25 0))
((rechcount_3_26 0))
((rechcount_3_27 0))
((rechcount_3_28 0))
((rechcount_3_29 0))
((rechcount_4_1 0))
((rechcount_4_2 0))
((rechcount_4_3 0))
((rechcount_4_4 0))
((rechcount_4_5 0))
((rechcount_4_6 1))
((rechcount_4_7 0))
((rechcount_4_8 0))
((rechcount_4_9 0))
((rechcount_4_10 0))
((rechcount_4_11 0))
((rechcount_4_12 0))
((rechcount_4_13 0))
((rechcount_4_14 0))
((rechcount_4_15 1))
((rechcount_4_16 0))
((rechcount_4_17 0))
((rechcount_4_18 0))
((rechcount_4_19 0))
((rechcount_4_20 0))
((rechcount_4_21 0))
((rechcount_4_22 0))
((rechcount_4_23 0))
((rechcount_4_24 0))
((rechcount_4_25 0))
((rechcount_4_26 0))
((rechcount_4_27 1))
((rechcount_4_28 0))
((rechcount_4_29 0))
((rechcount_5_1 0))
((rechcount_5_2 1))
((rechcount_5_3 0))
((rechcount_5_4 0))
((rechcount_5_5 0))
((rechcount_5_6 0))
((rechcount_5_7 0))
((rechcount_5_8 0))
((rechcount_5_9 0))
((rechcount_5_10 1))
((rechcount_5_11 0))
((rechcount_5_12 0))
((rechcount_5_13 0))
((rechcount_5_14 0))
((rechcount_5_15 0))
((rechcount_5_16 0))
((rechcount_5_17 0))
((rechcount_5_18 0))
((rechcount_5_19 0))
((rechcount_5_20 1))
((rechcount_5_21 0))
((rechcount_5_22 0))
((rechcount_5_23 0))
((rechcount_5_24 1))
((rechcount_5_25 0))
((rechcount_5_26 0))
((rechcount_5_27 0))
((rechcount_5_28 0))
((rechcount_5_29 0))
((rechcount_6_1 0))
((rechcount_6_2 0))
((rechcount_6_3 0))
((rechcount_6_4 0))
((rechcount_6_5 0))
((rechcount_6_6 0))
((rechcount_6_7 0))
((rechcount_6_8 0))
((rechcount_6_9 0))
((rechcount_6_10 0))
((rechcount_6_11 0))
((rechcount_6_12 0))
((rechcount_6_13 1))
((rechcount_6_14 1))
((rechcount_6_15 0))
((rechcount_6_16 0))
((rechcount_6_17 0))
((rechcount_6_18 0))
((rechcount_6_19 0))
((rechcount_6_20 0))
((rechcount_6_21 0))
((rechcount_6_22 0))
((rechcount_6_23 0))
((rechcount_6_24 0))
((rechcount_6_25 0))
((rechcount_6_26 0))
((rechcount_6_27 0))
((rechcount_6_28 0))
((rechcount_6_29 0))
((waitcount_1_1 0))
((waitcount_1_2 0))
((waitcount_1_3 0))
((waitcount_1_4 0))
((waitcount_1_5 0))
((waitcount_1_6 1))
((waitcount_1_7 0))
((waitcount_1_8 0))
((waitcount_1_9 0))
((waitcount_1_10 0))
((waitcount_1_11 0))
((waitcount_1_12 0))
((waitcount_1_13 0))
((waitcount_1_14 0))
((waitcount_1_15 1))
((waitcount_1_16 1))
((waitcount_1_17 1))
((waitcount_1_18 0))
((waitcount_1_19 0))
((waitcount_1_20 0))
((waitcount_1_21 1))
((waitcount_1_22 0))
((waitcount_1_23 0))
((waitcount_1_24 0))
((waitcount_1_25 0))
((waitcount_1_26 0))
((waitcount_1_27 0))
((waitcount_1_28 0))
((waitcount_1_29 0))
((waitcount_2_1 0))
((waitcount_2_2 0))
((waitcount_2_3 0))
((waitcount_2_4 0))
((waitcount_2_5 0))
((waitcount_2_6 0))
((waitcount_2_7 1))
((waitcount_2_8 1))
((waitcount_2_9 1))
((waitcount_2_10 1))
((waitcount_2_11 0))
((waitcount_2_12 0))
((waitcount_2_13 0))
((waitcount_2_14 0))
((waitcount_2_15 0))
((waitcount_2_16 0))
((waitcount_2_17 0))
((waitcount_2_18 0))
((waitcount_2_19 0))
((waitcount_2_20 0))
((waitcount_2_21 0))
((waitcount_2_22 0))
((waitcount_2_23 1))
((waitcount_2_24 0))
((waitcount_2_25 0))
((waitcount_2_26 0))
((waitcount_2_27 0))
((waitcount_2_28 0))
((waitcount_2_29 0))
((waitcount_3_1 0))
((waitcount_3_2 0))
((waitcount_3_3 0))
((waitcount_3_4 0))
((waitcount_3_5 0))
((waitcount_3_6 0))
((waitcount_3_7 1))
((waitcount_3_8 0))
((waitcount_3_9 0))
((waitcount_3_10 0))
((waitcount_3_11 0))
((waitcount_3_12 1))
((waitcount_3_13 0))
((waitcount_3_14 0))
((waitcount_3_15 0))
((waitcount_3_16 0))
((waitcount_3_17 1))
((waitcount_3_18 0))
((waitcount_3_19 1))
((waitcount_3_20 1))
((waitcount_3_21 0))
((waitcount_3_22 0))
((waitcount_3_23 0))
((waitcount_3_24 0))
((waitcount_3_25 0))
((waitcount_3_26 0))
((waitcount_3_27 0))
((waitcount_3_28 0))
((waitcount_3_29 0))
((waitcount_4_1 0))
((waitcount_4_2 0))
((waitcount_4_3 0))
((waitcount_4_4 0))
((waitcount_4_5 0))
((waitcount_4_6 1))
((waitcount_4_7 0))
((waitcount_4_8 0))
((waitcount_4_9 1))
((waitcount_4_10 0))
((waitcount_4_11 0))
((waitcount_4_12 0))
((waitcount_4_13 1))
((waitcount_4_14 0))
((waitcount_4_15 1))
((waitcount_4_16 0))
((waitcount_4_17 0))
((waitcount_4_18 0))
((waitcount_4_19 0))
((waitcount_4_20 0))
((waitcount_4_21 0))
((waitcount_4_22 0))
((waitcount_4_23 0))
((waitcount_4_24 0))
((waitcount_4_25 0))
((waitcount_4_26 0))
((waitcount_4_27 1))
((waitcount_4_28 0))
((waitcount_4_29 0))
((waitcount_5_1 0))
((waitcount_5_2 1))
((waitcount_5_3 0))
((waitcount_5_4 0))
((waitcount_5_5 0))
((waitcount_5_6 0))
((waitcount_5_7 0))
((waitcount_5_8 0))
((waitcount_5_9 0))
((waitcount_5_10 1))
((waitcount_5_11 0))
((waitcount_5_12 0))
((waitcount_5_13 0))
((waitcount_5_14 0))
((waitcount_5_15 0))
((waitcount_5_16 0))
((waitcount_5_17 0))
((waitcount_5_18 0))
((waitcount_5_19 1))
((waitcount_5_20 1))
((waitcount_5_21 0))
((waitcount_5_22 0))
((waitcount_5_23 0))
((waitcount_5_24 1))
((waitcount_5_25 0))
((waitcount_5_26 0))
((waitcount_5_27 0))
((waitcount_5_28 0))
((waitcount_5_29 0))
((waitcount_6_1 0))
((waitcount_6_2 0))
((waitcount_6_3 0))
((waitcount_6_4 0))
((waitcount_6_5 0))
((waitcount_6_6 0))
((waitcount_6_7 0))
((waitcount_6_8 0))
((waitcount_6_9 0))
((waitcount_6_10 0))
((waitcount_6_11 0))
((waitcount_6_12 0))
((waitcount_6_13 1))
((waitcount_6_14 1))
((waitcount_6_15 0))
((waitcount_6_16 0))
((waitcount_6_17 0))
((waitcount_6_18 0))
((waitcount_6_19 0))
((waitcount_6_20 0))
((waitcount_6_21 1))
((waitcount_6_22 1))
((waitcount_6_23 0))
((waitcount_6_24 1))
((waitcount_6_25 0))
((waitcount_6_26 0))
((waitcount_6_27 0))
((waitcount_6_28 0))
((waitcount_6_29 0))
((rechassigned_1_1 1))
((rechassigned_1_2 1))
((rechassigned_1_3 1))
((rechassigned_1_4 2))
((rechassigned_1_5 2))
((rechassigned_1_6 2))
((rechassigned_1_7 1))
((rechassigned_1_8 2))
((rechassigned_1_9 1))
((rechassigned_1_10 1))
((rechassigned_1_11 1))
((rechassigned_1_12 1))
((rechassigned_1_13 1))
((rechassigned_1_14 1))
((rechassigned_1_15 2))
((rechassigned_1_16 2))
((rechassigned_1_17 1))
((rechassigned_1_18 2))
((rechassigned_1_19 1))
((rechassigned_1_20 2))
((rechassigned_1_21 1))
((rechassigned_1_22 1))
((rechassigned_1_23 1))
((rechassigned_1_24 1))
((rechassigned_1_25 1))
((rechassigned_1_26 1))
((rechassigned_1_27 1))
((rechassigned_1_28 1))
((rechassigned_1_29 1))
((rechassigned_2_1 1))
((rechassigned_2_2 1))
((rechassigned_2_3 2))
((rechassigned_2_4 1))
((rechassigned_2_5 1))
((rechassigned_2_6 1))
((rechassigned_2_7 2))
((rechassigned_2_8 1))
((rechassigned_2_9 2))
((rechassigned_2_10 1))
((rechassigned_2_11 2))
((rechassigned_2_12 1))
((rechassigned_2_13 1))
((rechassigned_2_14 2))
((rechassigned_2_15 2))
((rechassigned_2_16 1))
((rechassigned_2_17 1))
((rechassigned_2_18 1))
((rechassigned_2_19 1))
((rechassigned_2_20 1))
((rechassigned_2_21 1))
((rechassigned_2_22 1))
((rechassigned_2_23 1))
((rechassigned_2_24 1))
((rechassigned_2_25 2))
((rechassigned_2_26 1))
((rechassigned_2_27 1))
((rechassigned_2_28 1))
((rechassigned_2_29 1))
((rechassigned_3_1 1))
((rechassigned_3_2 1))
((rechassigned_3_3 1))
((rechassigned_3_4 1))
((rechassigned_3_5 2))
((rechassigned_3_6 1))
((rechassigned_3_7 1))
((rechassigned_3_8 1))
((rechassigned_3_9 1))
((rechassigned_3_10 2))
((rechassigned_3_11 2))
((rechassigned_3_12 2))
((rechassigned_3_13 1))
((rechassigned_3_14 1))
((rechassigned_3_15 1))
((rechassigned_3_16 1))
((rechassigned_3_17 1))
((rechassigned_3_18 1))
((rechassigned_3_19 1))
((rechassigned_3_20 1))
((rechassigned_3_21 1))
((rechassigned_3_22 1))
((rechassigned_3_23 1))
((rechassigned_3_24 1))
((rechassigned_3_25 1))
((rechassigned_3_26 1))
((rechassigned_3_27 1))
((rechassigned_3_28 1))
((rechassigned_3_29 2))
((rechassigned_4_1 1))
((rechassigned_4_2 2))
((rechassigned_4_3 1))
((rechassigned_4_4 1))
((rechassigned_4_5 1))
((rechassigned_4_6 2))
((rechassigned_4_7 1))
((rechassigned_4_8 1))
((rechassigned_4_9 1))
((rechassigned_4_10 1))
((rechassigned_4_11 1))
((rechassigned_4_12 1))
((rechassigned_4_13 1))
((rechassigned_4_14 1))
((rechassigned_4_15 2))
((rechassigned_4_16 1))
((rechassigned_4_17 1))
((rechassigned_4_18 1))
((rechassigned_4_19 1))
((rechassigned_4_20 1))
((rechassigned_4_21 1))
((rechassigned_4_22 1))
((rechassigned_4_23 1))
((rechassigned_4_24 1))
((rechassigned_4_25 2))
((rechassigned_4_26 1))
((rechassigned_4_27 1))
((rechassigned_4_28 1))
((rechassigned_4_29 1))
((rechassigned_5_1 1))
((rechassigned_5_2 1))
((rechassigned_5_3 1))
((rechassigned_5_4 1))
((rechassigned_5_5 2))
((rechassigned_5_6 1))
((rechassigned_5_7 1))
((rechassigned_5_8 2))
((rechassigned_5_9 1))
((rechassigned_5_10 1))
((rechassigned_5_11 1))
((rechassigned_5_12 1))
((rechassigned_5_13 1))
((rechassigned_5_14 2))
((rechassigned_5_15 2))
((rechassigned_5_16 1))
((rechassigned_5_17 1))
((rechassigned_5_18 1))
((rechassigned_5_19 1))
((rechassigned_5_20 2))
((rechassigned_5_21 1))
((rechassigned_5_22 1))
((rechassigned_5_23 2))
((rechassigned_5_24 2))
((rechassigned_5_25 1))
((rechassigned_5_26 1))
((rechassigned_5_27 1))
((rechassigned_5_28 1))
((rechassigned_5_29 1))
((rechassigned_6_1 1))
((rechassigned_6_2 1))
((rechassigned_6_3 1))
((rechassigned_6_4 1))
((rechassigned_6_5 1))
((rechassigned_6_6 1))
((rechassigned_6_7 1))
((rechassigned_6_8 1))
((rechassigned_6_9 1))
((rechassigned_6_10 2))
((rechassigned_6_11 2))
((rechassigned_6_12 1))
((rechassigned_6_13 1))
((rechassigned_6_14 1))
((rechassigned_6_15 1))
((rechassigned_6_16 1))
((rechassigned_6_17 1))
((rechassigned_6_18 1))
((rechassigned_6_19 1))
((rechassigned_6_20 2))
((rechassigned_6_21 1))
((rechassigned_6_22 2))
((rechassigned_6_23 2))
((rechassigned_6_24 1))
((rechassigned_6_25 1))
((rechassigned_6_26 1))
((rechassigned_6_27 2))
((rechassigned_6_28 1))
((rechassigned_6_29 1))
((total_rech 0))
